RT is False
Default write of storage_offers_DA.csv just to have a file (but constraint should be inactive)
Reading model...
...model read.
creating competitive generators file...
...competitive generators recorded.
Loading data...
.. day-ahead data read.
Compiling instance...
...instance created.
Creating Offer Mitigation (model will solve as dispatch if TRUE)...
NOTE: storage offers will not be mitigated
...storage offer mitigation file created
Solving...

Welcome to IBM(R) ILOG(R) CPLEX(R) Interactive Optimizer 12.8.0.0
  with Simplex, Mixed Integer & Barrier Optimizers
5725-A06 5725-A29 5724-Y48 5724-Y49 5724-Y54 5724-Y55 5655-Y21
Copyright IBM Corp. 1988, 2017.  All Rights Reserved.

Type 'help' for a list of available commands.
Type 'help' followed by a command name for more
information on commands.

CPLEX> Logfile 'cplex.log' closed.
Logfile 'C:\Users\llavi\Desktop\test919\logs\tmp2msvth19.cplex.log' open.
CPLEX> New value for parallel optimization mode: -1
CPLEX> New value for mixed integer optimality gap tolerance: 0.01
CPLEX> New value for integrality tolerance: 1e-09
CPLEX> New value for feasibility tolerance: 0.01
CPLEX> New value for deterministic time limit in ticks: 75000
CPLEX> Problem 'C:\Users\llavi\Desktop\test919\logs\tmpglnjlm7s.pyomo.lp' read.
Read time = 0.09 sec. (3.03 ticks)
CPLEX> Problem name         : C:\Users\llavi\Desktop\test919\logs\tmpglnjlm7s.pyomo.lp
Objective sense      : Minimize
Variables            :   26465  [Nneg: 1,  Box: 22000,  Free: 4464]
Objective nonzeros   :    2496
Linear constraints   :   27515  [Less: 14006,  Greater: 4416,  Equal: 9093]
  Nonzeros           :   89267
  RHS nonzeros       :   12255

Variables            : Min LB: -5000.000        Max UB: 1000000.       
Objective nonzeros   : Min   : 15.73158         Max   : 124.0997       
Linear constraints   :
  Nonzeros           : Min   : 0.8500000        Max   : 3000.000       
  RHS nonzeros       : Min   : 0.1000000        Max   : 5000.000       
CPLEX> CPXPARAM_Simplex_Tolerances_Feasibility          0.01
CPXPARAM_Parallel                                -1
CPXPARAM_DetTimeLimit                            75000
CPXPARAM_MIP_Tolerances_MIPGap                   0.01
CPXPARAM_MIP_Tolerances_Integrality              1.0000000000000001e-09
Parallel mode: opportunistic, using up to 4 threads for concurrent optimization.
Tried aggregator 1 time.
LP Presolve eliminated 21353 rows and 15849 columns.
Aggregator did 771 substitutions.
Reduced LP has 5391 rows, 9845 columns, and 31806 nonzeros.
Presolve time = 0.05 sec. (22.77 ticks)

Iteration log . . .
Iteration:     1   Dual objective     =             0.000000
Perturbation started.
Iteration:   101   Dual objective     =             0.000000
Iteration:   368   Dual objective     =             1.274400
Iteration:   642   Dual objective     =             1.851084
Iteration:   946   Dual objective     =             1.990739
Iteration:  1141   Dual objective     =             2.105695
Iteration:  1483   Dual objective     =             2.162504
Iteration:  1800   Dual objective     =             2.191063
Iteration:  2087   Dual objective     =        136825.469580
Iteration:  2387   Dual objective     =        180435.829164
Iteration:  2681   Dual objective     =        247961.829457
Iteration:  3023   Dual objective     =        265760.007195
Iteration:  3379   Dual objective     =        266635.719102
Iteration:  3691   Dual objective     =        271261.765821
Iteration:  4120   Dual objective     =        272824.533205
Removing perturbation.

Dual simplex solved model.


Dual simplex - Optimal:  Objective =  2.7408229937e+05
Solution time =    0.16 sec.  Iterations = 4388 (0)
Deterministic time = 93.83 ticks  (601.47 ticks/sec)

CPLEX> Solution written to file 'C:\Users\llavi\Desktop\test919\logs\tmpb292whjs.cplex.sol'.
CPLEX> Exporting results... 
